c Reduced graph for DSJR500.1_3 generated by Cyril Grelier
p edge 363 2611
e 1 7
e 1 10
e 1 26
e 1 30
e 1 33
e 1 73
e 1 84
e 1 110
e 1 112
e 1 117
e 1 133
e 1 149
e 1 150
e 1 161
e 1 192
e 1 205
e 1 210
e 1 271
e 1 273
e 1 292
e 1 318
e 1 324
e 1 327
e 2 9
e 2 32
e 2 54
e 2 108
e 2 128
e 2 142
e 2 182
e 2 188
e 2 193
e 2 204
e 2 237
e 2 246
e 2 272
e 2 277
e 2 305
e 2 306
e 2 314
e 2 315
e 2 320
e 3 8
e 3 43
e 3 61
e 3 66
e 3 72
e 3 76
e 3 109
e 3 126
e 3 129
e 3 143
e 3 202
e 3 218
e 3 225
e 3 226
e 3 244
e 3 274
e 3 281
e 3 288
e 3 329
e 4 25
e 4 36
e 4 46
e 4 77
e 4 93
e 4 127
e 4 132
e 4 164
e 4 191
e 4 195
e 4 196
e 4 217
e 4 236
e 4 280
e 4 287
e 4 341
e 4 353
e 4 358
e 5 27
e 5 78
e 5 105
e 5 107
e 5 194
e 5 221
e 5 245
e 5 270
e 5 275
e 5 301
e 5 303
e 5 304
e 5 310
e 5 316
e 5 322
e 5 333
e 5 342
e 5 351
e 6 25
e 6 32
e 6 77
e 6 79
e 6 127
e 6 178
e 6 191
e 6 195
e 6 230
e 6 247
e 6 248
e 6 276
e 6 287
e 6 305
e 6 314
e 6 323
e 6 352
e 6 353
e 7 10
e 7 26
e 7 30
e 7 33
e 7 73
e 7 84
e 7 95
e 7 117
e 7 180
e 7 205
e 7 210
e 7 273
e 7 292
e 7 318
e 7 324
e 7 332
e 8 37
e 8 43
e 8 61
e 8 76
e 8 109
e 8 114
e 8 119
e 8 129
e 8 143
e 8 145
e 8 166
e 8 202
e 8 226
e 8 260
e 8 285
e 8 329
e 9 32
e 9 54
e 9 108
e 9 142
e 9 182
e 9 193
e 9 204
e 9 237
e 9 246
e 9 277
e 9 305
e 9 306
e 9 314
e 9 315
e 9 320
e 9 352
e 10 26
e 10 33
e 10 73
e 10 84
e 10 95
e 10 117
e 10 180
e 10 205
e 10 210
e 10 273
e 10 292
e 10 318
e 10 324
e 10 332
e 11 14
e 11 31
e 11 40
e 11 58
e 11 59
e 11 82
e 11 228
e 11 263
e 11 278
e 11 297
e 11 302
e 11 303
e 11 310
e 11 322
e 11 345
e 12 89
e 12 91
e 12 113
e 12 144
e 12 168
e 12 170
e 12 173
e 12 176
e 12 214
e 12 215
e 12 233
e 12 255
e 12 258
e 12 290
e 12 348
e 13 42
e 13 53
e 13 131
e 13 148
e 13 159
e 13 163
e 13 179
e 13 200
e 13 203
e 13 229
e 13 289
e 13 308
e 13 338
e 13 343
e 14 31
e 14 40
e 14 58
e 14 228
e 14 278
e 14 297
e 14 302
e 14 303
e 14 310
e 14 322
e 14 342
e 14 345
e 15 21
e 15 35
e 15 81
e 15 118
e 15 147
e 15 157
e 15 250
e 15 283
e 15 291
e 15 309
e 15 354
e 16 17
e 16 128
e 16 182
e 16 188
e 16 204
e 16 237
e 16 272
e 16 277
e 16 306
e 16 315
e 17 68
e 17 69
e 17 128
e 17 136
e 17 151
e 17 256
e 17 272
e 17 349
e 17 362
e 18 63
e 18 86
e 18 94
e 18 100
e 18 133
e 18 134
e 18 162
e 18 192
e 18 327
e 19 37
e 19 44
e 19 53
e 19 114
e 19 146
e 19 200
e 19 293
e 19 346
e 20 67
e 20 98
e 20 154
e 20 190
e 20 230
e 20 341
e 21 81
e 21 118
e 21 157
e 21 331
e 21 354
e 22 63
e 22 257
e 22 363
e 23 70
e 25 36
e 25 77
e 25 79
e 25 93
e 25 127
e 25 154
e 25 178
e 25 191
e 25 195
e 25 196
e 25 217
e 25 230
e 25 236
e 25 247
e 25 248
e 25 280
e 25 287
e 25 323
e 25 341
e 25 353
e 26 30
e 26 33
e 26 73
e 26 84
e 26 110
e 26 112
e 26 133
e 26 149
e 26 150
e 26 161
e 26 192
e 26 205
e 26 210
e 26 271
e 26 273
e 26 292
e 26 318
e 26 324
e 26 327
e 27 55
e 27 78
e 27 105
e 27 107
e 27 115
e 27 194
e 27 227
e 27 245
e 27 270
e 27 275
e 27 279
e 27 301
e 27 304
e 27 313
e 27 316
e 27 333
e 27 342
e 27 351
e 27 357
e 28 29
e 28 55
e 28 75
e 28 105
e 28 115
e 28 160
e 28 174
e 28 175
e 28 184
e 28 201
e 28 211
e 28 219
e 28 301
e 28 303
e 28 307
e 28 313
e 28 321
e 28 351
e 28 356
e 28 360
e 29 55
e 29 75
e 29 92
e 29 152
e 29 160
e 29 174
e 29 175
e 29 201
e 29 208
e 29 211
e 29 219
e 29 223
e 29 262
e 29 307
e 29 321
e 29 339
e 29 356
e 29 360
e 30 73
e 30 88
e 30 110
e 30 112
e 30 149
e 30 150
e 30 161
e 30 177
e 30 192
e 30 232
e 30 271
e 30 273
e 30 317
e 30 318
e 30 326
e 30 331
e 31 34
e 31 58
e 31 59
e 31 75
e 31 130
e 31 174
e 31 175
e 31 201
e 31 228
e 31 263
e 31 278
e 31 302
e 31 303
e 31 321
e 31 322
e 31 339
e 31 355
e 32 54
e 32 79
e 32 108
e 32 142
e 32 178
e 32 182
e 32 204
e 32 230
e 32 246
e 32 248
e 32 305
e 32 314
e 32 315
e 32 323
e 32 352
e 33 73
e 33 84
e 33 117
e 33 133
e 33 180
e 33 192
e 33 205
e 33 210
e 33 271
e 33 273
e 33 292
e 33 318
e 33 324
e 33 332
e 34 58
e 34 59
e 34 80
e 34 82
e 34 83
e 34 130
e 34 202
e 34 228
e 34 253
e 34 263
e 34 278
e 34 296
e 34 302
e 34 339
e 34 355
e 35 54
e 35 81
e 35 108
e 35 118
e 35 147
e 35 193
e 35 212
e 35 246
e 35 249
e 35 250
e 35 283
e 35 291
e 35 305
e 35 309
e 35 354
e 36 77
e 36 127
e 36 132
e 36 164
e 36 191
e 36 195
e 36 196
e 36 236
e 36 276
e 36 280
e 36 287
e 36 353
e 36 358
e 37 43
e 37 44
e 37 51
e 37 61
e 37 66
e 37 114
e 37 145
e 37 146
e 37 293
e 37 325
e 37 329
e 37 346
e 38 81
e 38 87
e 38 88
e 38 118
e 38 147
e 38 177
e 38 209
e 38 232
e 38 249
e 38 282
e 38 309
e 38 331
e 38 354
e 38 361
e 39 57
e 39 62
e 39 97
e 39 102
e 39 138
e 39 171
e 39 186
e 39 197
e 39 198
e 39 220
e 39 284
e 39 335
e 40 58
e 40 228
e 40 278
e 40 297
e 40 302
e 40 310
e 40 322
e 40 342
e 40 345
e 41 85
e 41 123
e 41 165
e 41 181
e 41 199
e 41 207
e 41 234
e 41 252
e 41 299
e 41 312
e 41 359
e 42 53
e 42 131
e 42 148
e 42 179
e 42 203
e 42 289
e 42 308
e 42 338
e 42 343
e 43 61
e 43 66
e 43 129
e 43 143
e 43 288
e 43 329
e 44 51
e 44 114
e 44 146
e 44 200
e 44 293
e 44 329
e 44 346
e 45 101
e 45 122
e 45 156
e 45 220
e 45 235
e 45 238
e 45 295
e 46 47
e 46 93
e 46 217
e 46 236
e 46 280
e 46 286
e 47 65
e 47 93
e 47 154
e 47 217
e 47 280
e 47 286
e 48 125
e 48 141
e 48 224
e 48 241
e 48 242
e 48 259
e 49 153
e 49 189
e 49 240
e 49 284
e 49 298
e 49 319
e 50 121
e 50 137
e 50 158
e 50 363
e 51 66
e 51 329
e 52 53
e 52 90
e 52 106
e 52 131
e 52 145
e 52 146
e 52 148
e 52 159
e 52 163
e 52 183
e 52 200
e 52 203
e 52 229
e 52 254
e 52 260
e 52 264
e 52 266
e 52 289
e 52 308
e 52 325
e 52 338
e 52 343
e 52 344
e 52 347
e 53 106
e 53 114
e 53 131
e 53 145
e 53 146
e 53 148
e 53 159
e 53 163
e 53 179
e 53 200
e 53 203
e 53 260
e 53 289
e 53 293
e 53 308
e 53 325
e 53 338
e 53 343
e 53 346
e 54 79
e 54 108
e 54 142
e 54 193
e 54 212
e 54 246
e 54 248
e 54 250
e 54 277
e 54 291
e 54 305
e 54 306
e 54 309
e 54 314
e 54 315
e 54 320
e 54 323
e 54 352
e 55 75
e 55 105
e 55 115
e 55 160
e 55 184
e 55 201
e 55 211
e 55 213
e 55 270
e 55 301
e 55 303
e 55 304
e 55 307
e 55 313
e 55 321
e 55 351
e 55 360
e 56 57
e 56 60
e 56 72
e 56 74
e 56 126
e 56 189
e 56 197
e 56 198
e 56 225
e 56 231
e 56 240
e 56 243
e 56 244
e 56 261
e 56 298
e 56 319
e 56 337
e 56 340
e 56 350
e 57 60
e 57 72
e 57 74
e 57 138
e 57 153
e 57 186
e 57 189
e 57 197
e 57 198
e 57 231
e 57 243
e 57 244
e 57 261
e 57 284
e 57 298
e 57 319
e 57 350
e 58 59
e 58 80
e 58 82
e 58 83
e 58 228
e 58 263
e 58 278
e 58 297
e 58 302
e 58 322
e 58 340
e 58 345
e 59 80
e 59 82
e 59 83
e 59 130
e 59 202
e 59 228
e 59 263
e 59 278
e 59 296
e 59 302
e 59 340
e 59 345
e 59 355
e 60 72
e 60 74
e 60 153
e 60 189
e 60 197
e 60 198
e 60 231
e 60 240
e 60 243
e 60 261
e 60 284
e 60 298
e 60 319
e 60 337
e 60 350
e 61 66
e 61 114
e 61 119
e 61 129
e 61 143
e 61 145
e 61 146
e 61 166
e 61 260
e 61 325
e 61 329
e 62 97
e 62 171
e 62 186
e 62 187
e 62 216
e 62 220
e 62 235
e 62 238
e 62 295
e 62 300
e 62 335
e 63 86
e 63 94
e 63 111
e 63 162
e 63 311
e 63 317
e 63 326
e 63 330
e 63 334
e 64 90
e 64 106
e 64 135
e 64 183
e 64 229
e 64 254
e 64 266
e 64 344
e 65 93
e 65 98
e 65 154
e 65 217
e 65 280
e 65 286
e 65 341
e 66 129
e 66 329
e 67 71
e 67 98
e 67 182
e 67 190
e 68 69
e 68 136
e 68 256
e 68 349
e 69 136
e 69 139
e 69 349
e 70 71
e 70 190
e 71 190
e 72 74
e 72 76
e 72 109
e 72 126
e 72 129
e 72 138
e 72 143
e 72 197
e 72 198
e 72 218
e 72 225
e 72 226
e 72 243
e 72 244
e 72 261
e 72 274
e 72 281
e 72 288
e 72 337
e 72 350
e 73 84
e 73 110
e 73 112
e 73 117
e 73 133
e 73 149
e 73 161
e 73 180
e 73 192
e 73 205
e 73 210
e 73 271
e 73 273
e 73 292
e 73 318
e 73 324
e 73 327
e 73 332
e 74 109
e 74 126
e 74 197
e 74 198
e 74 225
e 74 226
e 74 231
e 74 243
e 74 244
e 74 261
e 74 274
e 74 281
e 74 288
e 74 319
e 74 337
e 74 340
e 74 350
e 75 130
e 75 160
e 75 174
e 75 175
e 75 201
e 75 208
e 75 211
e 75 262
e 75 302
e 75 303
e 75 307
e 75 321
e 75 339
e 75 351
e 75 355
e 75 356
e 75 360
e 76 80
e 76 82
e 76 83
e 76 109
e 76 126
e 76 129
e 76 143
e 76 202
e 76 225
e 76 226
e 76 243
e 76 244
e 76 274
e 76 288
e 76 337
e 76 340
e 76 350
e 77 79
e 77 127
e 77 178
e 77 191
e 77 195
e 77 196
e 77 230
e 77 247
e 77 248
e 77 276
e 77 287
e 77 314
e 77 323
e 77 341
e 77 352
e 77 353
e 78 105
e 78 107
e 78 194
e 78 221
e 78 245
e 78 270
e 78 275
e 78 301
e 78 303
e 78 304
e 78 310
e 78 313
e 78 316
e 78 322
e 78 333
e 78 342
e 78 351
e 79 127
e 79 178
e 79 191
e 79 195
e 79 230
e 79 247
e 79 248
e 79 276
e 79 287
e 79 305
e 79 314
e 79 323
e 79 352
e 79 353
e 80 82
e 80 83
e 80 109
e 80 126
e 80 202
e 80 225
e 80 228
e 80 231
e 80 263
e 80 274
e 80 278
e 80 337
e 80 340
e 80 345
e 80 350
e 81 88
e 81 118
e 81 147
e 81 157
e 81 209
e 81 212
e 81 232
e 81 249
e 81 282
e 81 291
e 81 309
e 81 331
e 81 354
e 81 361
e 82 83
e 82 126
e 82 225
e 82 228
e 82 231
e 82 263
e 82 278
e 82 337
e 82 340
e 82 345
e 82 350
e 83 109
e 83 126
e 83 202
e 83 225
e 83 226
e 83 243
e 83 263
e 83 274
e 83 337
e 83 340
e 83 350
e 84 95
e 84 117
e 84 180
e 84 205
e 84 210
e 84 273
e 84 292
e 84 318
e 84 324
e 84 332
e 85 91
e 85 113
e 85 123
e 85 144
e 85 181
e 85 207
e 85 234
e 85 251
e 85 252
e 85 290
e 85 294
e 85 299
e 85 328
e 85 359
e 86 94
e 86 111
e 86 112
e 86 134
e 86 149
e 86 150
e 86 162
e 86 192
e 86 271
e 86 317
e 86 326
e 86 327
e 86 330
e 87 132
e 87 164
e 87 167
e 87 177
e 87 195
e 87 209
e 87 232
e 87 249
e 87 268
e 87 276
e 87 282
e 87 353
e 87 358
e 87 361
e 88 110
e 88 161
e 88 177
e 88 209
e 88 232
e 88 249
e 88 282
e 88 324
e 88 331
e 88 354
e 88 361
e 89 91
e 89 113
e 89 144
e 89 168
e 89 170
e 89 176
e 89 214
e 89 215
e 89 233
e 89 290
e 89 348
e 90 106
e 90 135
e 90 183
e 90 185
e 90 229
e 90 254
e 90 264
e 90 266
e 90 344
e 90 347
e 91 113
e 91 144
e 91 168
e 91 176
e 91 215
e 91 251
e 91 290
e 91 348
e 92 135
e 92 152
e 92 160
e 92 174
e 92 208
e 92 219
e 92 223
e 92 262
e 92 356
e 92 360
e 93 196
e 93 217
e 93 236
e 93 280
e 93 286
e 93 341
e 94 100
e 94 111
e 94 134
e 94 162
e 94 192
e 94 271
e 94 326
e 94 327
e 95 104
e 95 180
e 95 205
e 95 210
e 95 273
e 95 318
e 95 324
e 95 332
e 96 115
e 96 124
e 96 140
e 96 184
e 96 213
e 96 239
e 96 270
e 96 279
e 96 301
e 96 304
e 96 313
e 97 102
e 97 153
e 97 171
e 97 186
e 97 216
e 97 220
e 97 284
e 97 335
e 98 154
e 98 190
e 98 286
e 98 341
e 99 100
e 99 116
e 99 134
e 99 172
e 99 265
e 99 269
e 99 275
e 100 133
e 100 134
e 100 269
e 100 327
e 101 122
e 101 156
e 101 222
e 101 235
e 101 238
e 101 295
e 102 153
e 102 171
e 102 186
e 102 216
e 102 284
e 103 155
e 103 156
e 103 222
e 103 258
e 104 210
e 104 240
e 104 332
e 105 107
e 105 115
e 105 194
e 105 227
e 105 245
e 105 270
e 105 275
e 105 301
e 105 303
e 105 304
e 105 307
e 105 310
e 105 313
e 105 316
e 105 342
e 105 351
e 105 357
e 106 131
e 106 148
e 106 159
e 106 163
e 106 179
e 106 183
e 106 203
e 106 229
e 106 254
e 106 264
e 106 266
e 106 289
e 106 308
e 106 338
e 106 343
e 106 344
e 106 347
e 107 116
e 107 172
e 107 194
e 107 227
e 107 245
e 107 265
e 107 270
e 107 275
e 107 279
e 107 301
e 107 304
e 107 313
e 107 316
e 107 333
e 107 342
e 107 351
e 107 357
e 108 128
e 108 142
e 108 193
e 108 204
e 108 206
e 108 237
e 108 246
e 108 272
e 108 277
e 108 305
e 108 306
e 108 314
e 108 315
e 108 320
e 108 352
e 109 126
e 109 129
e 109 143
e 109 202
e 109 225
e 109 226
e 109 243
e 109 244
e 109 274
e 109 288
e 109 337
e 109 350
e 110 111
e 110 112
e 110 149
e 110 150
e 110 161
e 110 162
e 110 177
e 110 192
e 110 209
e 110 232
e 110 271
e 110 317
e 110 326
e 111 112
e 111 149
e 111 150
e 111 161
e 111 162
e 111 192
e 111 271
e 111 311
e 111 317
e 111 326
e 111 327
e 111 330
e 111 334
e 112 149
e 112 150
e 112 161
e 112 162
e 112 192
e 112 271
e 112 273
e 112 317
e 112 318
e 112 326
e 113 144
e 113 168
e 113 176
e 113 207
e 113 234
e 113 251
e 113 252
e 113 290
e 113 294
e 113 328
e 113 348
e 113 359
e 114 145
e 114 146
e 114 159
e 114 166
e 114 200
e 114 260
e 114 293
e 114 325
e 114 329
e 114 346
e 115 140
e 115 184
e 115 211
e 115 213
e 115 245
e 115 270
e 115 301
e 115 304
e 115 307
e 115 313
e 115 351
e 116 172
e 116 194
e 116 227
e 116 239
e 116 245
e 116 265
e 116 269
e 116 270
e 116 275
e 116 279
e 116 316
e 116 357
e 117 133
e 117 180
e 117 205
e 117 221
e 117 273
e 117 292
e 117 318
e 117 332
e 118 147
e 118 157
e 118 250
e 118 283
e 118 291
e 118 309
e 118 331
e 118 354
e 119 145
e 119 166
e 119 183
e 119 185
e 119 202
e 119 253
e 119 260
e 119 264
e 119 285
e 119 296
e 119 347
e 120 128
e 120 151
e 120 165
e 120 193
e 120 199
e 120 206
e 120 250
e 120 272
e 120 283
e 120 306
e 120 320
e 120 362
e 121 137
e 121 158
e 121 169
e 121 257
e 121 311
e 121 334
e 121 336
e 121 363
e 122 156
e 122 187
e 122 222
e 122 235
e 122 238
e 122 295
e 123 207
e 123 252
e 123 294
e 123 312
e 123 328
e 124 140
e 124 184
e 124 213
e 124 239
e 124 279
e 124 313
e 125 141
e 125 224
e 125 241
e 125 242
e 125 259
e 126 129
e 126 143
e 126 197
e 126 198
e 126 202
e 126 225
e 126 226
e 126 231
e 126 243
e 126 244
e 126 261
e 126 274
e 126 288
e 126 337
e 126 340
e 126 350
e 127 132
e 127 164
e 127 178
e 127 191
e 127 195
e 127 196
e 127 230
e 127 247
e 127 248
e 127 276
e 127 287
e 127 323
e 127 352
e 127 353
e 127 358
e 128 136
e 128 142
e 128 151
e 128 188
e 128 199
e 128 204
e 128 206
e 128 256
e 128 272
e 128 277
e 128 306
e 128 315
e 128 320
e 128 349
e 128 362
e 129 143
e 129 202
e 129 218
e 129 225
e 129 226
e 129 244
e 129 274
e 129 281
e 129 288
e 129 329
e 130 152
e 130 160
e 130 174
e 130 175
e 130 201
e 130 208
e 130 253
e 130 262
e 130 296
e 130 302
e 130 321
e 130 339
e 130 355
e 130 356
e 131 148
e 131 159
e 131 163
e 131 179
e 131 203
e 131 229
e 131 254
e 131 289
e 131 308
e 131 338
e 131 343
e 131 344
e 132 164
e 132 167
e 132 169
e 132 191
e 132 195
e 132 196
e 132 267
e 132 268
e 132 276
e 132 353
e 132 358
e 133 134
e 133 192
e 133 269
e 133 271
e 133 292
e 133 327
e 134 162
e 134 192
e 134 269
e 134 271
e 134 327
e 135 152
e 135 183
e 135 185
e 135 208
e 135 223
e 135 262
e 135 266
e 136 139
e 136 151
e 136 256
e 136 272
e 136 349
e 136 362
e 137 158
e 137 169
e 137 257
e 137 267
e 137 334
e 137 336
e 137 363
e 138 197
e 138 198
e 138 218
e 138 244
e 138 281
e 138 288
e 139 151
e 139 199
e 139 234
e 139 256
e 139 349
e 139 362
e 140 184
e 140 211
e 140 213
e 140 301
e 140 313
e 141 224
e 141 241
e 141 242
e 141 259
e 142 182
e 142 188
e 142 193
e 142 204
e 142 237
e 142 246
e 142 272
e 142 277
e 142 305
e 142 306
e 142 314
e 142 315
e 142 320
e 142 352
e 143 202
e 143 218
e 143 225
e 143 226
e 143 243
e 143 244
e 143 274
e 143 281
e 143 288
e 143 350
e 144 168
e 144 170
e 144 173
e 144 176
e 144 214
e 144 215
e 144 233
e 144 251
e 144 255
e 144 290
e 144 294
e 144 328
e 144 348
e 145 146
e 145 159
e 145 166
e 145 200
e 145 260
e 145 264
e 145 293
e 145 325
e 145 329
e 145 346
e 145 347
e 146 159
e 146 166
e 146 200
e 146 260
e 146 293
e 146 325
e 146 329
e 146 338
e 146 346
e 147 157
e 147 209
e 147 212
e 147 249
e 147 250
e 147 282
e 147 283
e 147 291
e 147 309
e 147 354
e 147 361
e 148 159
e 148 163
e 148 179
e 148 200
e 148 203
e 148 229
e 148 289
e 148 308
e 148 338
e 148 343
e 149 150
e 149 161
e 149 162
e 149 192
e 149 271
e 149 317
e 149 326
e 149 327
e 150 161
e 150 162
e 150 177
e 150 192
e 150 232
e 150 271
e 150 317
e 150 326
e 151 165
e 151 199
e 151 206
e 151 256
e 151 272
e 151 299
e 151 306
e 151 320
e 151 349
e 151 362
e 152 174
e 152 175
e 152 185
e 152 208
e 152 253
e 152 262
e 152 296
e 152 339
e 152 355
e 152 356
e 153 186
e 153 189
e 153 240
e 153 284
e 153 298
e 153 319
e 154 190
e 154 280
e 154 286
e 154 341
e 155 170
e 155 173
e 155 187
e 155 222
e 155 255
e 155 258
e 155 300
e 156 187
e 156 222
e 156 235
e 156 300
e 157 250
e 157 331
e 157 354
e 158 169
e 158 257
e 158 336
e 158 363
e 159 163
e 159 179
e 159 200
e 159 203
e 159 229
e 159 260
e 159 289
e 159 293
e 159 308
e 159 325
e 159 338
e 159 343
e 159 344
e 159 346
e 160 174
e 160 175
e 160 201
e 160 208
e 160 211
e 160 219
e 160 262
e 160 303
e 160 307
e 160 321
e 160 339
e 160 356
e 160 360
e 161 162
e 161 177
e 161 209
e 161 232
e 161 271
e 161 282
e 161 317
e 161 326
e 162 192
e 162 271
e 162 317
e 162 326
e 162 327
e 162 330
e 163 179
e 163 203
e 163 229
e 163 254
e 163 289
e 163 308
e 163 338
e 163 343
e 163 344
e 164 167
e 164 191
e 164 195
e 164 196
e 164 267
e 164 268
e 164 276
e 164 353
e 164 358
e 165 181
e 165 199
e 165 206
e 165 207
e 165 234
e 165 283
e 165 299
e 165 312
e 165 359
e 165 362
e 166 185
e 166 202
e 166 260
e 166 264
e 166 285
e 166 325
e 166 347
e 167 169
e 167 267
e 167 268
e 167 311
e 167 317
e 167 330
e 167 334
e 167 336
e 167 353
e 167 358
e 168 176
e 168 214
e 168 215
e 168 233
e 168 251
e 168 290
e 168 348
e 169 257
e 169 267
e 169 311
e 169 330
e 169 334
e 169 336
e 169 363
e 170 173
e 170 176
e 170 214
e 170 215
e 170 233
e 170 255
e 170 258
e 170 290
e 171 186
e 171 216
e 171 220
e 171 238
e 171 284
e 171 295
e 171 335
e 172 194
e 172 227
e 172 239
e 172 265
e 172 275
e 172 279
e 172 357
e 173 176
e 173 233
e 173 255
e 173 258
e 174 175
e 174 201
e 174 208
e 174 253
e 174 262
e 174 296
e 174 302
e 174 303
e 174 321
e 174 339
e 174 355
e 174 356
e 175 201
e 175 208
e 175 253
e 175 262
e 175 296
e 175 302
e 175 303
e 175 321
e 175 339
e 175 355
e 175 356
e 176 214
e 176 215
e 176 233
e 176 255
e 176 258
e 176 290
e 176 294
e 176 328
e 176 348
e 177 209
e 177 232
e 177 249
e 177 268
e 177 276
e 177 282
e 177 317
e 177 358
e 177 361
e 178 191
e 178 230
e 178 247
e 178 248
e 178 287
e 178 314
e 178 323
e 178 341
e 178 352
e 179 203
e 179 229
e 179 254
e 179 289
e 179 308
e 179 338
e 179 343
e 180 205
e 180 210
e 180 273
e 180 318
e 180 324
e 180 332
e 181 199
e 181 207
e 181 234
e 181 251
e 181 252
e 181 299
e 181 312
e 181 328
e 181 359
e 182 188
e 182 204
e 182 237
e 182 277
e 182 314
e 182 315
e 183 185
e 183 264
e 183 266
e 183 285
e 183 344
e 183 347
e 184 211
e 184 213
e 184 301
e 184 307
e 184 313
e 184 360
e 185 253
e 185 260
e 185 264
e 185 266
e 185 285
e 185 347
e 186 198
e 186 216
e 186 220
e 186 284
e 186 335
e 187 216
e 187 222
e 187 235
e 187 238
e 187 295
e 187 300
e 187 335
e 188 204
e 188 237
e 188 272
e 188 277
e 188 306
e 188 315
e 189 231
e 189 240
e 189 261
e 189 298
e 189 319
e 191 195
e 191 196
e 191 236
e 191 247
e 191 248
e 191 276
e 191 280
e 191 287
e 191 323
e 191 341
e 191 353
e 191 358
e 192 271
e 192 273
e 192 292
e 192 326
e 192 327
e 193 204
e 193 206
e 193 212
e 193 246
e 193 250
e 193 277
e 193 283
e 193 291
e 193 305
e 193 306
e 193 314
e 193 315
e 193 320
e 194 227
e 194 245
e 194 265
e 194 270
e 194 275
e 194 279
e 194 301
e 194 304
e 194 313
e 194 316
e 194 333
e 194 351
e 194 357
e 195 196
e 195 236
e 195 247
e 195 268
e 195 276
e 195 287
e 195 353
e 195 358
e 196 217
e 196 236
e 196 276
e 196 280
e 196 287
e 196 341
e 196 353
e 196 358
e 197 198
e 197 218
e 197 243
e 197 244
e 197 261
e 197 281
e 197 284
e 197 288
e 197 319
e 197 350
e 198 218
e 198 243
e 198 244
e 198 261
e 198 281
e 198 284
e 198 319
e 198 350
e 199 206
e 199 207
e 199 234
e 199 256
e 199 283
e 199 299
e 199 312
e 199 349
e 199 359
e 199 362
e 200 260
e 200 289
e 200 293
e 200 325
e 200 338
e 200 343
e 200 346
e 201 302
e 201 303
e 201 307
e 201 321
e 201 339
e 201 351
e 201 355
e 201 356
e 202 225
e 202 226
e 202 274
e 202 285
e 203 229
e 203 254
e 203 289
e 203 308
e 203 338
e 203 343
e 203 344
e 204 237
e 204 272
e 204 277
e 204 306
e 204 315
e 204 320
e 205 210
e 205 273
e 205 292
e 205 318
e 205 324
e 205 332
e 206 256
e 206 272
e 206 277
e 206 283
e 206 306
e 206 315
e 206 320
e 206 349
e 206 362
e 207 234
e 207 251
e 207 252
e 207 294
e 207 299
e 207 312
e 207 328
e 207 359
e 208 219
e 208 223
e 208 262
e 208 339
e 208 356
e 208 360
e 209 232
e 209 249
e 209 282
e 209 309
e 209 331
e 209 354
e 209 361
e 210 273
e 210 318
e 210 324
e 210 332
e 211 213
e 211 219
e 211 301
e 211 307
e 211 351
e 211 360
e 212 246
e 212 249
e 212 250
e 212 291
e 212 305
e 212 309
e 212 352
e 212 354
e 212 361
e 213 239
e 213 270
e 213 279
e 213 301
e 213 304
e 213 307
e 213 313
e 214 215
e 214 233
e 214 255
e 214 258
e 214 290
e 214 348
e 215 233
e 215 255
e 215 290
e 215 348
e 216 235
e 216 238
e 216 295
e 216 300
e 216 335
e 217 236
e 217 280
e 217 286
e 217 341
e 218 226
e 218 244
e 218 281
e 218 288
e 219 223
e 219 262
e 219 307
e 219 356
e 219 360
e 220 235
e 220 238
e 220 295
e 220 335
e 221 269
e 221 297
e 221 310
e 221 316
e 221 322
e 221 333
e 221 342
e 222 235
e 222 300
e 223 262
e 223 356
e 223 360
e 224 241
e 224 242
e 224 259
e 225 226
e 225 243
e 225 244
e 225 261
e 225 274
e 225 288
e 225 337
e 225 340
e 225 350
e 226 243
e 226 244
e 226 274
e 226 281
e 226 288
e 226 337
e 226 350
e 227 239
e 227 245
e 227 265
e 227 270
e 227 275
e 227 279
e 227 301
e 227 304
e 227 313
e 227 316
e 227 357
e 228 263
e 228 278
e 228 297
e 228 302
e 228 321
e 228 322
e 228 345
e 228 355
e 229 254
e 229 289
e 229 308
e 229 338
e 229 343
e 229 344
e 230 247
e 230 248
e 230 287
e 230 305
e 230 314
e 230 323
e 230 341
e 230 352
e 231 240
e 231 243
e 231 261
e 231 298
e 231 319
e 231 337
e 231 340
e 231 350
e 232 249
e 232 268
e 232 282
e 232 317
e 232 331
e 232 361
e 233 255
e 233 258
e 233 290
e 233 294
e 233 328
e 233 348
e 234 251
e 234 252
e 234 299
e 234 312
e 234 328
e 234 359
e 235 238
e 235 295
e 235 300
e 235 335
e 236 280
e 236 286
e 236 287
e 236 341
e 237 272
e 237 277
e 237 306
e 237 315
e 238 295
e 238 300
e 238 335
e 239 265
e 239 270
e 239 279
e 239 304
e 239 357
e 240 261
e 240 298
e 240 319
e 241 242
e 241 259
e 242 259
e 243 244
e 243 261
e 243 274
e 243 281
e 243 288
e 243 319
e 243 337
e 243 340
e 243 350
e 244 274
e 244 281
e 244 288
e 244 350
e 245 270
e 245 275
e 245 301
e 245 304
e 245 310
e 245 313
e 245 316
e 245 333
e 245 342
e 245 351
e 245 357
e 246 248
e 246 250
e 246 277
e 246 291
e 246 305
e 246 306
e 246 309
e 246 314
e 246 315
e 246 320
e 246 352
e 247 248
e 247 276
e 247 287
e 247 305
e 247 314
e 247 323
e 247 352
e 247 353
e 247 358
e 248 287
e 248 305
e 248 314
e 248 323
e 248 352
e 249 276
e 249 282
e 249 291
e 249 309
e 249 331
e 249 354
e 249 361
e 250 283
e 250 291
e 250 309
e 250 320
e 250 354
e 251 252
e 251 290
e 251 294
e 251 328
e 251 348
e 251 359
e 252 294
e 252 299
e 252 312
e 252 328
e 252 359
e 253 262
e 253 285
e 253 296
e 253 302
e 253 339
e 253 355
e 254 266
e 254 289
e 254 308
e 254 344
e 255 258
e 255 290
e 256 272
e 256 349
e 256 362
e 257 311
e 257 330
e 257 334
e 257 336
e 257 363
e 260 264
e 260 285
e 260 293
e 260 325
e 260 338
e 260 346
e 260 347
e 261 298
e 261 319
e 261 337
e 261 340
e 261 350
e 262 339
e 262 356
e 262 360
e 263 278
e 263 302
e 263 337
e 263 340
e 263 345
e 263 355
e 264 266
e 264 285
e 264 325
e 264 347
e 265 275
e 265 279
e 265 316
e 265 357
e 266 344
e 266 347
e 267 268
e 267 311
e 267 317
e 267 330
e 267 334
e 267 336
e 268 276
e 268 353
e 268 358
e 269 275
e 269 316
e 269 333
e 270 275
e 270 279
e 270 301
e 270 304
e 270 313
e 270 316
e 270 351
e 270 357
e 271 273
e 271 292
e 271 317
e 271 326
e 271 327
e 272 277
e 272 306
e 272 315
e 272 320
e 272 349
e 272 362
e 273 292
e 273 318
e 273 324
e 273 332
e 274 281
e 274 288
e 274 337
e 274 340
e 274 350
e 275 279
e 275 304
e 275 316
e 275 333
e 275 357
e 276 287
e 276 353
e 276 358
e 277 306
e 277 315
e 277 320
e 278 297
e 278 302
e 278 322
e 278 345
e 278 355
e 279 304
e 279 313
e 279 357
e 280 286
e 280 287
e 280 341
e 281 288
e 282 309
e 282 331
e 282 354
e 282 361
e 283 291
e 283 312
e 284 319
e 285 296
e 285 347
e 286 341
e 287 314
e 287 323
e 287 341
e 287 352
e 287 353
e 288 350
e 289 308
e 289 338
e 289 343
e 289 344
e 290 294
e 290 328
e 290 348
e 291 305
e 291 309
e 291 354
e 292 318
e 292 327
e 293 325
e 293 329
e 293 346
e 294 328
e 294 359
e 295 300
e 295 335
e 296 302
e 296 339
e 296 355
e 297 310
e 297 322
e 297 342
e 297 345
e 298 319
e 298 337
e 299 312
e 299 359
e 300 335
e 301 304
e 301 307
e 301 313
e 301 351
e 301 357
e 302 303
e 302 321
e 302 339
e 302 345
e 302 355
e 303 307
e 303 310
e 303 321
e 303 322
e 303 339
e 303 342
e 303 351
e 304 313
e 304 316
e 304 351
e 304 357
e 305 309
e 305 314
e 305 323
e 305 352
e 306 315
e 306 320
e 307 313
e 307 321
e 307 351
e 307 360
e 308 338
e 308 343
e 308 344
e 309 354
e 309 361
e 310 322
e 310 333
e 310 342
e 311 317
e 311 326
e 311 330
e 311 334
e 311 336
e 311 363
e 312 359
e 313 351
e 313 357
e 314 323
e 314 352
e 315 320
e 316 333
e 316 342
e 316 357
e 317 326
e 317 330
e 318 324
e 318 332
e 319 337
e 319 350
e 321 339
e 321 355
e 321 356
e 322 333
e 322 342
e 322 345
e 323 352
e 324 331
e 324 332
e 325 338
e 325 346
e 325 347
e 326 330
e 328 359
e 329 346
e 330 334
e 330 336
e 330 363
e 331 354
e 331 361
e 333 342
e 334 336
e 334 363
e 336 363
e 337 340
e 337 350
e 338 343
e 338 346
e 339 355
e 339 356
e 340 345
e 340 350
e 342 351
e 344 347
e 349 362
e 353 358
e 354 361
e 356 360
